200 1022
70 826 775 607 881 918 853 150 414 615 997 960 95 561 498 943 317 394 657 382 158 683 956 778 83 341 562 86 238 659 787 473 632 983 942 972 262 937 614 389 214 625 254 274 722 369 206 788 512 310 630 267 526 367 585 674 350 278 50 466 846 59 13 487 436 635 957 167 117 549 125 105 343 915 407 198 865 208 120 486 703 37 158 291 251 54 503 898 496 834 187 743 377 910 586 498 738 369 77 1003 870 970 187 963 819 735 435 832 749 570 445 8 793 633 200 311 31 19 476 557 285 388 494 317 884 146 454 706 435 80 779 170 1014 944 934 366 876 650 375 44 176 138 11 45 562 264 29 573 128 73 854 52 57 615 775 658 321 600 153 931 467 225 498 199 278 704 621 928 736 904 783 442 367 177 6 167 202 560 420 334 71 340 398 193 614 278 60 504 921 773 379 725 812 599 123 1012 713 229 672 122 